0 5127.75
1 5075.10
2 5075.10
3 5075.10
4 5067.17
5 4901.24
6 4901.24
7 4901.24
8 4901.24
9 4901.24
10 4900.05
11 4900.05
12 4900.05
13 4900.05
14 4900.05
15 4900.05
16 4900.05
17 4900.05
18 4900.05
19 4900.05
20 4894.25
21 4894.25
22 4894.25
23 4880.83
24 4880.83
25 4880.83
26 4880.83
27 4880.83
28 4880.83
29 4865.76
30 4865.76
31 4865.76
32 4865.76
33 4865.76
34 4865.76
35 4865.76
36 4865.76
37 4865.76
38 4865.76
39 4865.76
40 4865.76
41 4865.76
42 4865.76
43 4865.76
44 4865.76
45 4865.76
46 4865.76
47 4865.76
48 4865.76
49 4865.76
50 4865.76
51 4865.76
52 4865.76
53 4865.76
54 4865.76
55 4865.76
56 4865.76
57 4865.76
58 4865.76
59 4865.76
60 4865.76
61 4865.76
62 4865.76
63 4865.76
64 4865.76
65 4865.76
66 4865.76
67 4865.76
68 4865.76
69 4865.76
70 4865.76
71 4865.76
72 4865.76
73 4865.76
74 4865.76
75 4865.76
76 4865.76
77 4865.76
78 4865.76
79 4865.76
80 4865.76
81 4865.76
82 4865.76
83 4865.76
84 4865.76
85 4865.76
86 4858.17
87 4858.17
88 4858.17
89 4858.17
90 4858.17
91 4858.17
92 4858.17
93 4858.17
94 4858.17
95 4858.17
96 4858.17
97 4858.17
98 4858.17
99 4858.17
100 4858.17
101 4858.17
102 4858.17
103 4858.17
104 4858.17
105 4858.17
106 4858.17
107 4858.17
108 4858.17
109 4858.17
110 4858.17
111 4858.17
112 4858.17
113 4858.17
114 4858.17
115 4858.17
116 4858.17
117 4852.30
118 4852.30
119 4852.30
120 4852.30
121 4852.30
122 4852.30
123 4852.30
124 4852.30
125 4852.30
126 4852.30
127 4852.30
128 4852.30
129 4833.08
130 4833.08
131 4833.08
132 4833.08
133 4833.08
134 4833.08
135 4833.08
136 4833.08
137 4833.08
138 4833.08
139 4833.08
140 4833.08
141 4833.08
142 4833.08
143 4833.08
144 4833.08
145 4833.08
146 4833.08
147 4833.08
148 4833.08
149 4833.08
150 4833.08
151 4833.08
152 4833.08
153 4833.08
154 4833.08
155 4833.08
156 4833.08
157 4833.08
158 4833.08
159 4833.08
160 4833.08
161 4833.08
162 4833.08
163 4833.08
164 4833.08
165 4832.96
166 4832.96
167 4832.96
168 4832.96
169 4832.96
170 4832.96
171 4832.96
172 4832.96
173 4822.59
174 4822.59
175 4817.57
176 4817.57
177 4817.57
178 4817.57
179 4817.57
180 4817.57
181 4817.57
182 4817.57
183 4817.57
184 4817.57
185 4817.57
186 4817.57
187 4817.57
188 4817.57
189 4817.57
190 4817.57
191 4817.57
192 4817.57
193 4817.57
194 4817.57
195 4817.57
196 4817.57
197 4817.57
198 4817.57
199 4817.57
200 4817.57
201 4817.57
202 4817.57
203 4817.57
204 4817.57
205 4817.57
206 4817.57
207 4817.57
208 4817.57
209 4817.57
210 4817.57
211 4817.57
212 4817.57
213 4817.57
214 4817.57
215 4817.57
216 4817.57
217 4817.57
218 4817.57
219 4817.57
220 4817.57
221 4817.57
222 4817.57
223 4817.57
224 4817.57
225 4813.37
226 4813.37
227 4813.37
228 4813.37
229 4813.37
230 4813.37
231 4813.37
232 4813.37
233 4813.37
234 4813.37
235 4813.37
236 4813.37
237 4813.37
238 4813.37
239 4813.37
240 4813.37
241 4813.37
242 4813.37
243 4813.37
244 4813.37
245 4813.37
246 4813.37
247 4813.37
248 4813.37
249 4813.37
250 4813.37
251 4813.37
252 4813.37
253 4813.37
254 4813.37
255 4813.37
256 4813.37
257 4813.37
258 4813.37
259 4813.37
260 4813.37
261 4813.37
262 4813.37
263 4813.37
264 4813.37
265 4813.37
266 4801.28
267 4801.28
268 4801.28
269 4801.28
270 4801.28
271 4801.28
272 4801.28
273 4801.28
274 4801.28
275 4801.28
276 4801.28
277 4801.28
278 4801.28
279 4801.28
280 4801.28
281 4801.28
282 4801.28
283 4801.28
284 4801.28
285 4801.28
286 4801.28
287 4801.28
288 4801.28
289 4801.28
290 4801.28
291 4801.28
292 4801.28
293 4801.28
294 4801.28
295 4801.28
296 4801.28
297 4801.28
298 4801.28
299 4801.28
300 4801.28
301 4801.28
302 4801.28
303 4801.28
304 4801.28
305 4801.28
306 4801.28
307 4801.28
308 4801.28
309 4801.28
310 4801.28
311 4801.28
312 4801.28
313 4801.28
314 4801.28
315 4801.28
316 4801.28
317 4801.28
318 4801.28
319 4801.28
320 4801.28
321 4801.28
322 4801.28
323 4801.28
324 4801.28
325 4801.28
326 4801.28
327 4801.28
328 4801.28
329 4801.28
330 4801.28
331 4801.28
332 4801.28
333 4801.28
334 4801.28
335 4801.28
336 4801.28
337 4801.28
338 4801.28
339 4801.28
340 4790.35
341 4790.35
342 4790.35
343 4790.35
344 4790.35
345 4790.35
346 4790.35
347 4790.35
348 4790.35
349 4790.35
350 4790.35
351 4790.35
352 4790.35
353 4790.35
354 4790.35
355 4790.35
356 4790.35
357 4790.35
358 4790.35
359 4790.35
360 4790.35
361 4790.35
362 4790.35
363 4790.35
364 4790.35
365 4790.35
366 4790.35
367 4790.35
368 4790.35
369 4790.35
370 4790.35
371 4790.35
372 4790.35
373 4790.35
374 4790.35
375 4790.35
376 4790.35
377 4790.35
378 4790.35
379 4790.35
380 4790.35
381 4790.35
382 4790.35
383 4790.35
384 4790.35
385 4785.40
386 4785.40
387 4785.40
388 4785.40
389 4785.40
390 4785.40
391 4785.40
392 4785.40
393 4785.40
394 4785.40
395 4785.40
396 4785.40
397 4785.40
398 4785.40
399 4785.40
400 4785.40
401 4785.40
402 4785.40
403 4785.40
404 4785.40
405 4785.40
406 4785.40
407 4785.40
408 4785.40
409 4785.40
410 4785.40
411 4785.40
412 4785.40
413 4785.40
414 4785.40
415 4785.40
416 4785.40
417 4785.40
418 4785.40
419 4785.40
420 4784.96
421 4784.96
422 4784.96
423 4784.96
424 4784.96
425 4784.96
426 4784.96
427 4784.96
428 4784.96
429 4784.96
430 4784.96
431 4784.96
432 4784.96
433 4784.96
434 4784.96
435 4784.96
436 4784.96
437 4784.96
438 4784.96
439 4784.96
440 4784.96
441 4784.96
442 4784.96
443 4784.96
444 4784.96
445 4784.96
446 4784.96
447 4784.96
448 4784.96
449 4784.96
450 4784.96
451 4784.96
452 4784.96
453 4784.96
454 4784.96
455 4784.96
456 4784.96
457 4784.96
458 4784.96
459 4784.96
460 4784.96
461 4784.96
462 4784.96
463 4784.96
464 4784.96
465 4784.96
466 4784.96
467 4784.96
468 4784.96
469 4784.96
470 4784.96
471 4784.96
472 4784.96
473 4784.96
474 4784.96
475 4784.96
476 4784.96
477 4784.96
478 4784.96
479 4784.96
480 4784.96
481 4784.96
482 4778.92
483 4778.92
484 4778.92
485 4778.92
486 4778.92
487 4778.92
488 4778.92
489 4778.92
490 4778.92
491 4778.92
492 4778.92
493 4778.92
494 4778.92
495 4778.92
496 4778.92
497 4778.92
498 4778.91
499 4778.91
4 4 7 5 0 0 